2070961
0,71,36,191,33,32,8,88,129,150,6,35,111,154,132,101,80,39,54,49,20,169,170,89,3,223,9,64,45,213,136,144,90,165,95,183,100,115,168,214,195,106,25,61,27,178,143,19,26,34,86,107,93,116,182,209,82,117,126,146,156,73,30,208,118,200,199,175,227,185,186,102,5,1,130,60,122,131,179,98,99,215,53,55,91,52,65,103,226,74,160,204,77,21,43,67,210,59,137,96,75,56,194,135,217,113,13,14,2,7,177,198,225,181,180,172,147,173,63,153,18,222,216,202,37,105,201,104,189,140,221,81,211,171,203,51,78,220,124,196,138,10,133,4,16,190,85,192,84,112,176,68,197,109,164,69,72,41,97,121,151,159,42,127,76,120,157,145,11,87,108,152,128,141,149,218,174,17,23,40,24,28,94,166,187,123,205,46,193,12,224,219,119,163,110,47,50,207,206,38,31,228,161,155,58,229,44,212,148,125,57,79,114,167,92,83,142,29,15,22,48,70,66,158,184,188,162,139,134,62,0